p wcnf 158 79 80 
1 -66 3 0 
1 -137 146 0 
1 -71 135 0 
1 20 4 0 
1 -36 -10 0 
1 -116 -109 0 
1 21 -119 0 
1 111 -8 0 
1 88 117 0 
1 96 110 0 
1 71 -138 0 
1 137 24 0 
1 48 -110 0 
1 -44 96 0 
1 87 91 0 
1 121 75 0 
1 -134 -63 0 
1 -56 -158 0 
1 72 -34 0 
1 -8 115 0 
1 141 -54 0 
1 -136 61 0 
1 92 -129 0 
1 12 -13 0 
1 -118 8 0 
1 132 -147 0 
1 129 -104 0 
1 -54 83 0 
1 2 90 0 
1 -111 104 0 
1 69 -92 0 
1 36 -78 0 
1 -53 146 0 
1 14 153 0 
1 115 116 0 
1 89 157 0 
1 33 40 0 
1 -130 140 0 
1 -130 10 0 
1 144 27 0 
1 131 -80 0 
1 4 -42 0 
1 -87 -145 0 
1 11 -111 0 
1 90 20 0 
1 -104 -78 0 
1 -9 -150 0 
1 96 37 0 
1 -152 -71 0 
1 -21 -31 0 
1 -77 -6 0 
1 23 52 0 
1 -59 -13 0 
1 -131 41 0 
1 -59 -93 0 
1 -108 -22 0 
1 -109 -122 0 
1 26 71 0 
1 20 -56 0 
1 64 32 0 
1 140 -115 0 
1 147 -155 0 
1 114 -76 0 
1 -123 157 0 
1 47 -85 0 
1 84 -27 0 
1 148 -15 0 
1 -53 127 0 
1 16 -116 0 
1 -40 38 0 
1 10 129 0 
1 110 -37 0 
1 -154 152 0 
1 15 -143 0 
1 74 107 0 
1 137 38 0 
1 -140 -15 0 
1 79 158 0 
1 -22 -6 0 
